NAME: random-34-25246
TYPE: TSP
COMMENT: size=34 seed=25246
DIMENSION: 70
EDGE_WEIGHT_TYPE: EUC_2D
NODE_COORD_SECTION
+0 522 214
-0 522 214
+1 630 943
-1 835 702
+2 655 155
-2 633 479
+3 266 148
-3 999 54
+4 321 816
-4 327 63
+5 805 888
-5 171 239
+6 546 124
-6 667 712
+7 942 216
-7 155 622
+8 577 576
-8 59 676
+9 597 542
-9 141 685
+10 190 477
-10 810 363
+11 454 25
-11 26 641
+12 776 823
-12 796 818
+13 874 44
-13 38 199
+14 50 902
-14 789 875
+15 426 997
-15 56 966
+16 570 748
-16 149 738
+17 319 451
-17 228 720
+18 445 908
-18 812 169
+19 13 48
-19 975 306
+20 637 16
-20 934 386
+21 589 199
-21 688 873
+22 842 804
-22 359 7
+23 163 146
-23 811 257
+24 395 34
-24 795 335
+25 338 651
-25 516 894
+26 342 211
-26 263 64
+27 0 536
-27 821 349
+28 623 961
-28 432 382
+29 581 117
-29 307 428
+30 801 18
-30 599 995
+31 504 888
-31 132 148
+32 274 300
-32 108 523
+33 807 545
-33 902 130
+34 418 724
-34 938 137
PRECEDENCE_SECTION
+0 -0
+1 -1
+2 -2
+3 -3
+4 -4
+5 -5
+6 -6
+7 -7
+8 -8
+9 -9
+10 -10
+11 -11
+12 -12
+13 -13
+14 -14
+15 -15
+16 -16
+17 -17
+18 -18
+19 -19
+20 -20
+21 -21
+22 -22
+23 -23
+24 -24
+25 -25
+26 -26
+27 -27
+28 -28
+29 -29
+30 -30
+31 -31
+32 -32
+33 -33
+34 -34
EOF
